Maximize
F - f1 - f2

Subject to
F - 10.0y315 - 20.0y177 - 5.0y2 - 10.0y300 - 20.0y237 - 5.0y234 - 15.0y239 - 20.0y39 - 20.0y162 - 10.0y153 - 20.0y270 - 20.0y23 - 5.0y184 - 20.0y211 - 10.0y3 - 20.0y34 - 10.0y151 - 5.0y301 - 5.0y217 - 5.0y66 - 5.0y96 - 5.0y105 - 10.0y302 = 0
f1 - 0.005051s315 - 0.005051s177 - 0.005051s2 - 0.005051s300 - 0.005051s237 - 0.005051s234 - 0.005051s239 - 0.005051s39 - 0.005051s162 - 0.005051s153 - 0.005051s270 - 0.005051s23 - 0.005051s184 - 0.005051s211 - 0.005051s3 - 0.005051s34 - 0.005051s151 - 0.005051s301 - 0.005051s217 - 0.005051s66 - 0.005051s96 - 0.005051s105 - 0.005051s302  = 0
f2 - 0.20y315 - 0.19y177 - 0.09y2 - 0.02y300 - 0.22y237 - 0.13y234 - 0.01y239 - 0.09y39 - 0.76y162 - 0.50y153 - 0.37y270 - 0.35y23 - 0.40y184 - 0.07y211 - 0.62y3 - 0.61y34 - 0.45y151 - 0.18y301 - 0.16y217 - 0.53y66 - 0.07y96 - 0.40y105 - 0.65y302 = 0

x330x177x1 + x330x237x1 + x330x239x1 + x330x162x1 + x330x184x1 + x330x3x1 + x330x151x1 + x330x217x1 + x330x96x1 
<= 1
x30x177x1 + x30x2x1 + x30x237x1 + x30x239x1 + x30x162x1 + x30x184x1 + x30x3x1 + x30x151x1 + x30x217x1 + x30x96x1 
<= 2


- x315x184x2 - x315x3x2 - x315x34x2 - x315x301x2 - x315x66x2 - x315x105x2 - x315x302x2 
= 0

- x315x153x3 - x315x302x3 
= 0

x330x177x1 + x30x177x1 
- x177x0x1

= 0



x30x2x1 
- x2x0x1
- x2x239x1 - x2x162x1 - x2x184x1 - x2x3x1 - x2x151x1 - x2x217x1 - x2x96x1 
= 0


- x2x153x3 - x2x270x3 - x2x211x3 - x2x302x3 
= 0



- x300x39x2 - x300x162x2 - x300x270x2 - x300x23x2 - x300x184x2 - x300x211x2 - x300x3x2 - x300x34x2 - x300x301x2 - x300x66x2 - x300x105x2 - x300x302x2 
= 0


x330x237x1 + x30x237x1 
- x237x0x1
- x237x239x1 - x237x162x1 - x237x184x1 - x237x3x1 - x237x151x1 - x237x217x1 - x237x96x1 
= 0







x330x239x1 + x30x239x1 + x2x239x1 + x237x239x1 
- x239x0x1
- x239x184x1 - x239x3x1 - x239x151x1 - x239x217x1 - x239x96x1 
= 0




x300x39x2 
- x39x0x2
- x39x23x2 - x39x184x2 - x39x211x2 - x39x3x2 - x39x34x2 - x39x301x2 - x39x66x2 - x39x105x2 - x39x302x2 
= 0


x330x162x1 + x30x162x1 + x2x162x1 + x237x162x1 
- x162x0x1
- x162x151x1 
= 0
x300x162x2 
- x162x0x2
- x162x105x2 
= 0




x315x153x3 + x2x153x3 
- x153x0x3
- x153x302x3 
= 0


x300x270x2 
- x270x0x2
- x270x23x2 - x270x105x2 
= 0
x2x270x3 
- x270x0x3

= 0


x300x23x2 + x39x23x2 + x270x23x2 
- x23x0x2
- x23x105x2 
= 0


x330x184x1 + x30x184x1 + x2x184x1 + x237x184x1 + x239x184x1 
- x184x0x1

= 0
x315x184x2 + x300x184x2 + x39x184x2 
- x184x0x2
- x184x66x2 - x184x302x2 
= 0



x300x211x2 + x39x211x2 
- x211x0x2

= 0
x2x211x3 
- x211x0x3

= 0

x330x3x1 + x30x3x1 + x2x3x1 + x237x3x1 + x239x3x1 
- x3x0x1

= 0
x315x3x2 + x300x3x2 + x39x3x2 
- x3x0x2
- x3x302x2 
= 0



x315x34x2 + x300x34x2 + x39x34x2 
- x34x0x2
- x34x302x2 
= 0


x330x151x1 + x30x151x1 + x2x151x1 + x237x151x1 + x239x151x1 + x162x151x1 
- x151x0x1

= 0




x315x301x2 + x300x301x2 + x39x301x2 
- x301x0x2

= 0


x330x217x1 + x30x217x1 + x2x217x1 + x237x217x1 + x239x217x1 
- x217x0x1

= 0




x315x66x2 + x300x66x2 + x39x66x2 + x184x66x2 
- x66x0x2

= 0


x330x96x1 + x30x96x1 + x2x96x1 + x237x96x1 + x239x96x1 
- x96x0x1

= 0




x315x105x2 + x300x105x2 + x39x105x2 + x162x105x2 + x270x105x2 + x23x105x2 
- x105x0x2

= 0



x315x302x2 + x300x302x2 + x39x302x2 + x184x302x2 + x3x302x2 + x34x302x2 
- x302x0x2

= 0
x315x302x3 + x2x302x3 + x153x302x3 
- x302x0x3

= 0

1y315 = 0
1y315 = 0
1y177 - x330x177x1 - x30x177x1 = 0
1y177 = 0
1y2 - x30x2x1 = 0
1y2 = 0
2y300 = 0
2y237 - x330x237x1 - x30x237x1 = 0
2y234 = 0
2y239 - x330x239x1 - x30x239x1 - x2x239x1 - x237x239x1 = 0
2y39 - x300x39x2 = 0
1y162 - x330x162x1 - x30x162x1 - x2x162x1 - x237x162x1 = 0
1y162 - x300x162x2 = 0
2y153 - x315x153x3 - x2x153x3 = 0
1y270 - x300x270x2 = 0
1y270 - x2x270x3 = 0
2y23 - x300x23x2 - x39x23x2 - x270x23x2 = 0
1y184 - x330x184x1 - x30x184x1 - x2x184x1 - x237x184x1 - x239x184x1 = 0
1y184 - x315x184x2 - x300x184x2 - x39x184x2 = 0
1y211 - x300x211x2 - x39x211x2 = 0
1y211 - x2x211x3 = 0
1y3 - x330x3x1 - x30x3x1 - x2x3x1 - x237x3x1 - x239x3x1 = 0
1y3 - x315x3x2 - x300x3x2 - x39x3x2 = 0
2y34 - x315x34x2 - x300x34x2 - x39x34x2 = 0
2y151 - x330x151x1 - x30x151x1 - x2x151x1 - x237x151x1 - x239x151x1 - x162x151x1 = 0
2y301 - x315x301x2 - x300x301x2 - x39x301x2 = 0
2y217 - x330x217x1 - x30x217x1 - x2x217x1 - x237x217x1 - x239x217x1 = 0
2y66 - x315x66x2 - x300x66x2 - x39x66x2 - x184x66x2 = 0
2y96 - x330x96x1 - x30x96x1 - x2x96x1 - x237x96x1 - x239x96x1 = 0
2y105 - x315x105x2 - x300x105x2 - x39x105x2 - x162x105x2 - x270x105x2 - x23x105x2 = 0
1y302 - x315x302x2 - x300x302x2 - x39x302x2 - x184x302x2 - x3x302x2 - x34x302x2 = 0
1y302 - x315x302x3 - x2x302x3 - x153x302x3 = 0

s330 - s177 + 8.105057z330z177z1 <= 6.95
s330 - s237 + 8.439014z330z237z1 <= 6.95
s330 - s239 + 8.458162z330z239z1 <= 6.95
s330 - s162 + 8.450716z330z162z1 <= 6.95
s330 - s184 + 8.485115z330z184z1 <= 6.95
s330 - s3 + 8.436769z330z3z1 <= 6.95
s330 - s151 + 8.487407z330z151z1 <= 6.95
s330 - s217 + 8.512596z330z217z1 <= 6.95
s330 - s96 + 8.510567z330z96z1 <= 6.95
s30 - s177 + 8.203674z30z177z1 <= 6.74
s30 - s2 + 8.213854z30z2z1 <= 6.74
s30 - s237 + 8.199154z30z237z1 <= 6.74
s30 - s239 + 8.239039z30z239z1 <= 6.74
s30 - s162 + 8.134757z30z162z1 <= 6.74
s30 - s184 + 8.301455z30z184z1 <= 6.74
s30 - s3 + 8.307629z30z3z1 <= 6.74
s30 - s151 + 8.196682z30z151z1 <= 6.74
s30 - s217 + 8.286102z30z217z1 <= 6.74
s30 - s96 + 8.257168z30z96z1 <= 6.74
s315 - s153 + 9.582759z315z153z3 <= 8.38
s315 - s184 + 9.629622z315z184z2 <= 8.38
s315 - s3 + 9.563424z315z3z2 <= 8.38
s315 - s34 + 9.580555z315z34z2 <= 8.38
s315 - s301 + 9.672422z315z301z2 <= 8.38
s315 - s66 + 9.630599z315z66z2 <= 8.38
s315 - s105 + 9.710992z315z105z2 <= 8.38
s315 - s302 + 9.601610z315z302z2 <= 8.38
s315 - s302 + 9.601610z315z302z3 <= 8.38
s2 - s239 + 9.456667z2z239z1 <= 8.43
s2 - s162 + 9.561318z2z162z1 <= 8.43
s2 - s153 + 9.540354z2z153z3 <= 8.43
s2 - s270 + 9.510278z2z270z3 <= 8.43
s2 - s184 + 9.520677z2z184z1 <= 8.43
s2 - s211 + 9.500868z2z211z3 <= 8.43
s2 - s3 + 9.569204z2z3z1 <= 8.43
s2 - s151 + 9.530222z2z151z1 <= 8.43
s2 - s217 + 9.511104z2z217z1 <= 8.43
s2 - s96 + 9.510278z2z96z1 <= 8.43
s2 - s302 + 9.564990z2z302z3 <= 8.43
s300 - s39 + 9.475901z300z39z2 <= 8.44
s300 - s162 + 9.592315z300z162z2 <= 8.44
s300 - s270 + 9.540000z300z270z2 <= 8.44
s300 - s23 + 9.540221z300z23z2 <= 8.44
s300 - s184 + 9.514535z300z184z2 <= 8.44
s300 - s211 + 9.521377z300z211z2 <= 8.44
s300 - s3 + 9.558133z300z3z2 <= 8.44
s300 - s34 + 9.550352z300z34z2 <= 8.44
s300 - s301 + 9.518031z300z301z2 <= 8.44
s300 - s66 + 9.536148z300z66z2 <= 8.44
s300 - s105 + 9.560738z300z105z2 <= 8.44
s300 - s302 + 9.554697z300z302z2 <= 8.44
s237 - s239 + 9.492687z237z239z1 <= 8.45
s237 - s162 + 9.554350z237z162z1 <= 8.45
s237 - s184 + 9.563137z237z184z1 <= 8.45
s237 - s3 + 9.616667z237z3z1 <= 8.45
s237 - s151 + 9.524535z237z151z1 <= 8.45
s237 - s217 + 9.537686z237z217z1 <= 8.45
s237 - s96 + 9.521802z237z96z1 <= 8.45
s239 - s184 + 9.590868z239z184z1 <= 8.52
s239 - s3 + 9.653999z239z3z1 <= 8.52
s239 - s151 + 9.621981z239z151z1 <= 8.52
s239 - s217 + 9.574975z239z217z1 <= 8.52
s239 - s96 + 9.582893z239z96z1 <= 8.52
s39 - s23 + 9.640676z39z23z2 <= 8.55
s39 - s184 + 9.607349z39z184z2 <= 8.55
s39 - s211 + 9.604975z39z211z2 <= 8.55
s39 - s3 + 9.676667z39z3z2 <= 8.55
s39 - s34 + 9.664115z39z34z2 <= 8.55
s39 - s301 + 9.592164z39z301z2 <= 8.55
s39 - s66 + 9.631377z39z66z2 <= 8.55
s39 - s105 + 9.658525z39z105z2 <= 8.55
s39 - s302 + 9.661754z39z302z2 <= 8.55
s162 - s151 + 9.663246z162z151z1 <= 8.60
s162 - s105 + 9.676012z162z105z2 <= 8.60
s153 - s302 + 9.659815z153z302z3 <= 8.63
s270 - s23 + 9.636667z270z23z2 <= 8.63
s270 - s105 + 9.654037z270z105z2 <= 8.63
s23 - s105 + 9.671082z23z105z2 <= 8.65
s184 - s66 + 9.684037z184z66z2 <= 8.66
s184 - s302 + 9.719999z184z302z2 <= 8.66
s3 - s302 + 9.728872z3z302z2 <= 8.69
s34 - s302 + 9.721082z34z302z2 <= 8.70

x330x177x1 - 1z330z177z1 <= 0
x330x237x1 - 2z330z237z1 <= 0
x330x239x1 - 2z330z239z1 <= 0
x330x162x1 - 1z330z162z1 <= 0
x330x184x1 - 1z330z184z1 <= 0
x330x3x1 - 1z330z3z1 <= 0
x330x151x1 - 2z330z151z1 <= 0
x330x217x1 - 2z330z217z1 <= 0
x330x96x1 - 2z330z96z1 <= 0
x30x177x1 - 1z30z177z1 <= 0
x30x2x1 - 1z30z2z1 <= 0
x30x237x1 - 2z30z237z1 <= 0
x30x239x1 - 2z30z239z1 <= 0
x30x162x1 - 1z30z162z1 <= 0
x30x184x1 - 1z30z184z1 <= 0
x30x3x1 - 1z30z3z1 <= 0
x30x151x1 - 2z30z151z1 <= 0
x30x217x1 - 2z30z217z1 <= 0
x30x96x1 - 2z30z96z1 <= 0
x315x153x3 - 2z315z153z3 <= 0
x315x184x2 - 1z315z184z2 <= 0
x315x3x2 - 1z315z3z2 <= 0
x315x34x2 - 2z315z34z2 <= 0
x315x301x2 - 2z315z301z2 <= 0
x315x66x2 - 2z315z66z2 <= 0
x315x105x2 - 2z315z105z2 <= 0
x315x302x2 - 1z315z302z2 <= 0
x315x302x3 - 1z315z302z3 <= 0
x315x0x2 <= 1
x315x0x3 <= 1
x177x0x1 <= 1
x177x0x3 <= 1
x2x239x1 - 2z2z239z1 <= 0
x2x162x1 - 1z2z162z1 <= 0
x2x153x3 - 2z2z153z3 <= 0
x2x270x3 - 1z2z270z3 <= 0
x2x184x1 - 1z2z184z1 <= 0
x2x211x3 - 1z2z211z3 <= 0
x2x3x1 - 1z2z3z1 <= 0
x2x151x1 - 2z2z151z1 <= 0
x2x217x1 - 2z2z217z1 <= 0
x2x96x1 - 2z2z96z1 <= 0
x2x302x3 - 1z2z302z3 <= 0
x2x0x1 <= 1
x2x0x3 <= 1
x300x39x2 - 2z300z39z2 <= 0
x300x162x2 - 1z300z162z2 <= 0
x300x270x2 - 1z300z270z2 <= 0
x300x23x2 - 2z300z23z2 <= 0
x300x184x2 - 1z300z184z2 <= 0
x300x211x2 - 1z300z211z2 <= 0
x300x3x2 - 1z300z3z2 <= 0
x300x34x2 - 2z300z34z2 <= 0
x300x301x2 - 2z300z301z2 <= 0
x300x66x2 - 2z300z66z2 <= 0
x300x105x2 - 2z300z105z2 <= 0
x300x302x2 - 1z300z302z2 <= 0
x300x0x2 <= 2
x237x239x1 - 2z237z239z1 <= 0
x237x162x1 - 1z237z162z1 <= 0
x237x184x1 - 1z237z184z1 <= 0
x237x3x1 - 1z237z3z1 <= 0
x237x151x1 - 2z237z151z1 <= 0
x237x217x1 - 2z237z217z1 <= 0
x237x96x1 - 2z237z96z1 <= 0
x237x0x1 <= 2
x234x0x2 <= 2
x239x184x1 - 1z239z184z1 <= 0
x239x3x1 - 1z239z3z1 <= 0
x239x151x1 - 2z239z151z1 <= 0
x239x217x1 - 2z239z217z1 <= 0
x239x96x1 - 2z239z96z1 <= 0
x239x0x1 <= 2
x39x23x2 - 2z39z23z2 <= 0
x39x184x2 - 1z39z184z2 <= 0
x39x211x2 - 1z39z211z2 <= 0
x39x3x2 - 1z39z3z2 <= 0
x39x34x2 - 2z39z34z2 <= 0
x39x301x2 - 2z39z301z2 <= 0
x39x66x2 - 2z39z66z2 <= 0
x39x105x2 - 2z39z105z2 <= 0
x39x302x2 - 1z39z302z2 <= 0
x39x0x2 <= 2
x162x151x1 - 2z162z151z1 <= 0
x162x105x2 - 2z162z105z2 <= 0
x162x0x1 <= 1
x162x0x2 <= 1
x153x302x3 - 1z153z302z3 <= 0
x153x0x3 <= 2
x270x23x2 - 2z270z23z2 <= 0
x270x105x2 - 2z270z105z2 <= 0
x270x0x2 <= 1
x270x0x3 <= 1
x23x105x2 - 2z23z105z2 <= 0
x23x0x2 <= 2
x184x66x2 - 2z184z66z2 <= 0
x184x302x2 - 1z184z302z2 <= 0
x184x0x1 <= 1
x184x0x2 <= 1
x211x0x2 <= 1
x211x0x3 <= 1
x3x302x2 - 1z3z302z2 <= 0
x3x0x1 <= 1
x3x0x2 <= 1
x34x302x2 - 1z34z302z2 <= 0
x34x0x2 <= 2
x151x0x1 <= 2
x301x0x2 <= 2
x217x0x1 <= 2
x66x0x2 <= 2
x96x0x1 <= 2
x105x0x2 <= 2
x302x0x2 <= 1
x302x0x3 <= 1

s177 - 6.00z330z177z1 >= 0
s177 - 6.00z30z177z1 >= 0
s2 - 6.00z30z2z1 >= 0
s237 - 6.00z330z237z1 >= 0
s237 - 6.00z30z237z1 >= 0
s239 - 6.00z330z239z1 >= 0
s239 - 6.00z30z239z1 >= 0
s239 - 6.00z2z239z1 >= 0
s239 - 6.00z237z239z1 >= 0
s39 - 6.00z300z39z2 >= 0
s162 - 6.00z330z162z1 >= 0
s162 - 6.00z30z162z1 >= 0
s162 - 6.00z2z162z1 >= 0
s162 - 6.00z300z162z2 >= 0
s162 - 6.00z237z162z1 >= 0
s153 - 6.00z315z153z3 >= 0
s153 - 6.00z2z153z3 >= 0
s270 - 6.00z2z270z3 >= 0
s270 - 6.00z300z270z2 >= 0
s23 - 6.00z300z23z2 >= 0
s23 - 6.00z39z23z2 >= 0
s23 - 6.00z270z23z2 >= 0
s184 - 6.00z330z184z1 >= 0
s184 - 6.00z30z184z1 >= 0
s184 - 6.00z315z184z2 >= 0
s184 - 6.00z2z184z1 >= 0
s184 - 6.00z300z184z2 >= 0
s184 - 6.00z237z184z1 >= 0
s184 - 6.00z239z184z1 >= 0
s184 - 6.00z39z184z2 >= 0
s211 - 6.00z2z211z3 >= 0
s211 - 6.00z300z211z2 >= 0
s211 - 6.00z39z211z2 >= 0
s3 - 6.00z330z3z1 >= 0
s3 - 6.00z30z3z1 >= 0
s3 - 6.00z315z3z2 >= 0
s3 - 6.00z2z3z1 >= 0
s3 - 6.00z300z3z2 >= 0
s3 - 6.00z237z3z1 >= 0
s3 - 6.00z239z3z1 >= 0
s3 - 6.00z39z3z2 >= 0
s34 - 6.00z315z34z2 >= 0
s34 - 6.00z300z34z2 >= 0
s34 - 6.00z39z34z2 >= 0
s151 - 6.00z330z151z1 >= 0
s151 - 6.00z30z151z1 >= 0
s151 - 6.00z2z151z1 >= 0
s151 - 6.00z237z151z1 >= 0
s151 - 6.00z239z151z1 >= 0
s151 - 6.00z162z151z1 >= 0
s301 - 6.00z315z301z2 >= 0
s301 - 6.00z300z301z2 >= 0
s301 - 6.00z39z301z2 >= 0
s217 - 6.00z330z217z1 >= 0
s217 - 6.00z30z217z1 >= 0
s217 - 6.00z2z217z1 >= 0
s217 - 6.00z237z217z1 >= 0
s217 - 6.00z239z217z1 >= 0
s66 - 6.00z315z66z2 >= 0
s66 - 6.00z300z66z2 >= 0
s66 - 6.00z39z66z2 >= 0
s66 - 6.00z184z66z2 >= 0
s96 - 6.00z330z96z1 >= 0
s96 - 6.00z30z96z1 >= 0
s96 - 6.00z2z96z1 >= 0
s96 - 6.00z237z96z1 >= 0
s96 - 6.00z239z96z1 >= 0
s105 - 6.00z315z105z2 >= 0
s105 - 6.00z300z105z2 >= 0
s105 - 6.00z39z105z2 >= 0
s105 - 6.00z162z105z2 >= 0
s105 - 6.00z270z105z2 >= 0
s105 - 6.00z23z105z2 >= 0
s302 - 6.00z315z302z2 >= 0
s302 - 6.00z315z302z3 >= 0
s302 - 6.00z2z302z3 >= 0
s302 - 6.00z300z302z2 >= 0
s302 - 6.00z39z302z2 >= 0
s302 - 6.00z153z302z3 >= 0
s302 - 6.00z184z302z2 >= 0
s302 - 6.00z3z302z2 >= 0
s302 - 6.00z34z302z2 >= 0

Bounds
s330 = 6.953033
s52 = 7.349794
s171 = 7.434907
s30 = 6.739395
s166 = 7.322559
s78 = 7.586666
s204 = 7.323110
s17 = 7.871215
s19 = 7.649949
s28 = 8.021887
s289 = 8.073420
s67 = 8.231066
s148 = 8.080551
s317 = 8.243828
7.380000 <= s315 <= 8.380000
7.420000 <= s177 <= 8.420000
7.430000 <= s2 <= 8.430000
7.440000 <= s300 <= 8.440000
7.450000 <= s237 <= 8.450000
7.500000 <= s234 <= 8.500000
7.520000 <= s239 <= 8.520000
7.550000 <= s39 <= 8.550000
7.600000 <= s162 <= 8.600000
7.630000 <= s153 <= 8.630000
7.630000 <= s270 <= 8.630000
7.650000 <= s23 <= 8.650000
7.660000 <= s184 <= 8.660000
7.680000 <= s211 <= 8.680000
7.690000 <= s3 <= 8.690000
7.700000 <= s34 <= 8.700000
7.700000 <= s151 <= 8.700000
7.700000 <= s301 <= 8.700000
7.710000 <= s217 <= 8.710000
7.720000 <= s66 <= 8.720000
7.720000 <= s96 <= 8.720000
7.740000 <= s105 <= 8.740000
7.750000 <= s302 <= 8.750000

General
x330x177x1 x330x237x1 x330x239x1 x330x162x1 x330x184x1 x330x3x1 x330x151x1 x330x217x1 x330x96x1 


x30x177x1 x30x2x1 x30x237x1 x30x239x1 x30x162x1 x30x184x1 x30x3x1 x30x151x1 x30x217x1 x30x96x1 










x315x153x3 x315x184x2 x315x3x2 x315x34x2 x315x301x2 x315x66x2 x315x105x2 x315x302x2 x315x302x3 x315x0x2 x315x0x3 
x177x0x1 x177x0x3 
x2x239x1 x2x162x1 x2x153x3 x2x270x3 x2x184x1 x2x211x3 x2x3x1 x2x151x1 x2x217x1 x2x96x1 x2x302x3 x2x0x1 x2x0x3 
x300x39x2 x300x162x2 x300x270x2 x300x23x2 x300x184x2 x300x211x2 x300x3x2 x300x34x2 x300x301x2 x300x66x2 x300x105x2 x300x302x2 x300x0x2 
x237x239x1 x237x162x1 x237x184x1 x237x3x1 x237x151x1 x237x217x1 x237x96x1 x237x0x1 
x234x0x2 
x239x184x1 x239x3x1 x239x151x1 x239x217x1 x239x96x1 x239x0x1 
x39x23x2 x39x184x2 x39x211x2 x39x3x2 x39x34x2 x39x301x2 x39x66x2 x39x105x2 x39x302x2 x39x0x2 
x162x151x1 x162x105x2 x162x0x1 x162x0x2 
x153x302x3 x153x0x3 
x270x23x2 x270x105x2 x270x0x2 x270x0x3 
x23x105x2 x23x0x2 
x184x66x2 x184x302x2 x184x0x1 x184x0x2 
x211x0x2 x211x0x3 
x3x302x2 x3x0x1 x3x0x2 
x34x302x2 x34x0x2 
x151x0x1 
x301x0x2 
x217x0x1 
x66x0x2 
x96x0x1 
x105x0x2 
x302x0x2 x302x0x3 

Binaries
y315 y177 y2 y300 y237 y234 y239 y39 y162 y153 y270 y23 y184 y211 y3 y34 y151 y301 y217 y66 y96 y105 y302 
z330z177z1 z330z237z1 z330z239z1 z330z162z1 z330z184z1 z330z3z1 z330z151z1 z330z217z1 z330z96z1 


z30z177z1 z30z2z1 z30z237z1 z30z239z1 z30z162z1 z30z184z1 z30z3z1 z30z151z1 z30z217z1 z30z96z1 










z315z153z3 z315z184z2 z315z3z2 z315z34z2 z315z301z2 z315z66z2 z315z105z2 z315z302z2 z315z302z3 

z2z239z1 z2z162z1 z2z153z3 z2z270z3 z2z184z1 z2z211z3 z2z3z1 z2z151z1 z2z217z1 z2z96z1 z2z302z3 
z300z39z2 z300z162z2 z300z270z2 z300z23z2 z300z184z2 z300z211z2 z300z3z2 z300z34z2 z300z301z2 z300z66z2 z300z105z2 z300z302z2 
z237z239z1 z237z162z1 z237z184z1 z237z3z1 z237z151z1 z237z217z1 z237z96z1 

z239z184z1 z239z3z1 z239z151z1 z239z217z1 z239z96z1 
z39z23z2 z39z184z2 z39z211z2 z39z3z2 z39z34z2 z39z301z2 z39z66z2 z39z105z2 z39z302z2 
z162z151z1 z162z105z2 
z153z302z3 
z270z23z2 z270z105z2 
z23z105z2 
z184z66z2 z184z302z2 

z3z302z2 
z34z302z2 








End